unknown
(model
; cardinality of BoundSet is 2
(declare-sort BoundSet 0)
; rep: @uc_BoundSet_0
; rep: @uc_BoundSet_1
; cardinality of UnboundSet is 1
(declare-sort UnboundSet 0)
(declare-fun groundTerm_3 () UnboundSet)
(define-fun WillNotBuy ((BOUND_VARIABLE_383 BoundSet) (BOUND_VARIABLE_384 BoundSet)) Bool true)
(define-fun WillGetMadeFunOf ((BOUND_VARIABLE_387 BoundSet)) Bool true)
(define-fun WillNotBeChosen ((BOUND_VARIABLE_383 BoundSet) (BOUND_VARIABLE_384 BoundSet)) Bool false)
)
sat
(model
; cardinality of BoundSet is 1
(declare-sort BoundSet 0)
; rep: @uc_BoundSet_0
; cardinality of UnboundSet is 1
(declare-sort UnboundSet 0)
(declare-fun groundTerm_5 () UnboundSet)
(define-fun WillNotBuy ((BOUND_VARIABLE_415 BoundSet) (BOUND_VARIABLE_416 BoundSet)) Bool true)
(define-fun WillGetMadeFunOf ((BOUND_VARIABLE_419 BoundSet)) Bool true)
(define-fun WillNotBeChosen ((BOUND_VARIABLE_415 BoundSet) (BOUND_VARIABLE_416 BoundSet)) Bool false)
)
